db/data/20690701911975315714454318191864426881.z3.out
unsat
-------------------
68.821081994
